p cnf 20 20
5 1 8 0
-20 18 10 0
3 17 19 0
4 9 -18 0
-4 18 10 0
-15 10 6 0
18 -6 14 0
10 -4 -20 0
18 20 4 0
11 -6 13 0
20 -5 -4 0
-7 -16 -11 0
7 -3 -15 0
7 3 19 0
9 2 12 0
-19 13 -11 0
12 -20 18 0
20 -9 13 0
-3 1 6 0
-14 19 18 0
